Route #1: 79 20 121 54 56 91 89 81 84 30 7 3 98
Route #2: 29 87 57 71 33 86 136 104 63 28 73 120 110 45 109
Route #3: 124 88 70 58 35 78 138 103 83 135 8 52 126
Route #4: 62 10 80 92 122 21 68 14 102 51 15 44 95
Route #5: 76 18 116 100 67 39 65 72 118 4 74 41
Route #6: 50 23 32 85 117 48 42 101 128 119 1 55
Route #7: 16 24 114 26 123 97 43 46 47 11 59 60 61 19 99
Route #8: 37 66 2 125 137 9 22 108 69 115 27 31 13 77
Route #9: 106 130 34 38 94 112 25 36 129 49 12 17 40
Route #10: 111 105 82 64 127 93 107 133 131 53 96 113 90 134
Route #11: 132 75 6 5
Cost 29994
